(set-info :smt-lib-version 2.6)
(set-logic UFLRA)
; Problem:
; 
;     lim(f_1 x) = l_1
;     ...
;     lim(f_n x) = l_n
;     =================
;     lim(k_1 f_{i_1}(x) + ... + k_m f_{i_m}(x)) = k1 l_{i_1} ... k_m  l_{i_m}
; 
; with n = 2
;      m = 32
;      k_i in Q
;      i_j in {1..n}

(declare-fun f0 (Real) Real)
(declare-fun f1 (Real) Real)
(declare-const l0 Real)
(declare-const l1 Real)
(declare-const a Real)
; Axiom 0
(assert ; lim[x -> a](f0 x) = l0
        ;
        ; forall epsilon > 0
        (forall ((epsilon Real)) (=> (< 0.0 epsilon)
          ;
          ; exists delta > 0
          (exists ( (delta Real) ) (and (< 0.0 delta)
            (forall ((x Real)) (=> ;
                                          ; a != x
                                     (and (not (= x a))
                                          ; | x - a | < delta
                                          (< (ite (>= (- x a) 0.0) (- x a) (- (- x a))) delta))
                                     ;
                                     ; | (f0 x) - l0 | < epsilon
                                     (< (ite (>= (- (f0 x) l0) 0.0) (- (f0 x) l0) (- (- (f0 x) l0))) epsilon)
            ))
          ))
        )))

; Axiom 1
(assert ; lim[x -> a](f1 x) = l1
        ;
        ; forall epsilon > 0
        (forall ((epsilon Real)) (=> (< 0.0 epsilon)
          ;
          ; exists delta > 0
          (exists ( (delta Real) ) (and (< 0.0 delta)
            (forall ((x Real)) (=> ;
                                          ; a != x
                                     (and (not (= x a))
                                          ; | x - a | < delta
                                          (< (ite (>= (- x a) 0.0) (- x a) (- (- x a))) delta))
                                     ;
                                     ; | (f1 x) - l1 | < epsilon
                                     (< (ite (>= (- (f1 x) l1) 0.0) (- (f1 x) l1) (- (- (f1 x) l1))) epsilon)
            ))
          ))
        )))


; Conclusion
(assert (not ; lim[x -> a](+ (* (/ 77.0 81.0) (f1 x)) (* (/ 62.0 65.0) (f0 x)) (* (- (/ 97.0 18.0)) (f0 x)) (* (/ 56.0 100.0) (f0 x)) (* (/ 9.0 50.0) (f0 x)) (* (/ 86.0 65.0) (f0 x)) (* (/ 61.0 24.0) (f1 x)) (* (- (/ 37.0 75.0)) (f1 x)) (* (/ 59.0 62.0) (f0 x)) (* (/ 63.0 95.0) (f1 x)) (* (- (/ 33.0 75.0)) (f0 x)) (* (- (/ 14.0 42.0)) (f0 x)) (* (/ 71.0 13.0) (f1 x)) (* (- (/ 72.0 77.0)) (f1 x)) (* (/ 79.0 38.0) (f1 x)) (* (- (/ 69.0 61.0)) (f1 x)) (* (/ 73.0 31.0) (f1 x)) (* (/ 39.0 80.0) (f0 x)) (* (/ 3.0 77.0) (f0 x)) (* (- (/ 96.0 80.0)) (f0 x)) (* (/ 90.0 99.0) (f1 x)) (* (/ 98.0 10.0) (f1 x)) (* (- (/ 7.0 50.0)) (f1 x)) (* (- (/ 78.0 52.0)) (f1 x)) (* (- (/ 36.0 10.0)) (f0 x)) (* (- (/ 41.0 93.0)) (f0 x)) (* (/ 33.0 78.0) (f1 x)) (* (- (/ 22.0 88.0)) (f0 x)) (* (- (/ 76.0 86.0)) (f1 x)) (* (- (/ 31.0 21.0)) (f1 x)) (* (/ 93.0 88.0) (f0 x)) (* (/ 92.0 74.0) (f1 x))) = (+ (* (/ 77.0 81.0) l1) (* (/ 62.0 65.0) l0) (* (- (/ 97.0 18.0)) l0) (* (/ 56.0 100.0) l0) (* (/ 9.0 50.0) l0) (* (/ 86.0 65.0) l0) (* (/ 61.0 24.0) l1) (* (- (/ 37.0 75.0)) l1) (* (/ 59.0 62.0) l0) (* (/ 63.0 95.0) l1) (* (- (/ 33.0 75.0)) l0) (* (- (/ 14.0 42.0)) l0) (* (/ 71.0 13.0) l1) (* (- (/ 72.0 77.0)) l1) (* (/ 79.0 38.0) l1) (* (- (/ 69.0 61.0)) l1) (* (/ 73.0 31.0) l1) (* (/ 39.0 80.0) l0) (* (/ 3.0 77.0) l0) (* (- (/ 96.0 80.0)) l0) (* (/ 90.0 99.0) l1) (* (/ 98.0 10.0) l1) (* (- (/ 7.0 50.0)) l1) (* (- (/ 78.0 52.0)) l1) (* (- (/ 36.0 10.0)) l0) (* (- (/ 41.0 93.0)) l0) (* (/ 33.0 78.0) l1) (* (- (/ 22.0 88.0)) l0) (* (- (/ 76.0 86.0)) l1) (* (- (/ 31.0 21.0)) l1) (* (/ 93.0 88.0) l0) (* (/ 92.0 74.0) l1))
             ;
             ; forall epsilon > 0
             (forall ((epsilon Real)) (=> (< 0.0 epsilon)
               ;
               ; exists delta > 0
               (exists ( (delta Real) ) (and (< 0.0 delta)
                 (forall ((x Real)) (=> ;
                                               ; a != x
                                          (and (not (= x a))
                                               ; | x - a | < delta
                                               (< (ite (>= (- x a) 0.0) (- x a) (- (- x a))) delta))
                                          ;
                                          ; | (+ (* (/ 77.0 81.0) (f1 x)) (* (/ 62.0 65.0) (f0 x)) (* (- (/ 97.0 18.0)) (f0 x)) (* (/ 56.0 100.0) (f0 x)) (* (/ 9.0 50.0) (f0 x)) (* (/ 86.0 65.0) (f0 x)) (* (/ 61.0 24.0) (f1 x)) (* (- (/ 37.0 75.0)) (f1 x)) (* (/ 59.0 62.0) (f0 x)) (* (/ 63.0 95.0) (f1 x)) (* (- (/ 33.0 75.0)) (f0 x)) (* (- (/ 14.0 42.0)) (f0 x)) (* (/ 71.0 13.0) (f1 x)) (* (- (/ 72.0 77.0)) (f1 x)) (* (/ 79.0 38.0) (f1 x)) (* (- (/ 69.0 61.0)) (f1 x)) (* (/ 73.0 31.0) (f1 x)) (* (/ 39.0 80.0) (f0 x)) (* (/ 3.0 77.0) (f0 x)) (* (- (/ 96.0 80.0)) (f0 x)) (* (/ 90.0 99.0) (f1 x)) (* (/ 98.0 10.0) (f1 x)) (* (- (/ 7.0 50.0)) (f1 x)) (* (- (/ 78.0 52.0)) (f1 x)) (* (- (/ 36.0 10.0)) (f0 x)) (* (- (/ 41.0 93.0)) (f0 x)) (* (/ 33.0 78.0) (f1 x)) (* (- (/ 22.0 88.0)) (f0 x)) (* (- (/ 76.0 86.0)) (f1 x)) (* (- (/ 31.0 21.0)) (f1 x)) (* (/ 93.0 88.0) (f0 x)) (* (/ 92.0 74.0) (f1 x))) - (+ (* (/ 77.0 81.0) l1) (* (/ 62.0 65.0) l0) (* (- (/ 97.0 18.0)) l0) (* (/ 56.0 100.0) l0) (* (/ 9.0 50.0) l0) (* (/ 86.0 65.0) l0) (* (/ 61.0 24.0) l1) (* (- (/ 37.0 75.0)) l1) (* (/ 59.0 62.0) l0) (* (/ 63.0 95.0) l1) (* (- (/ 33.0 75.0)) l0) (* (- (/ 14.0 42.0)) l0) (* (/ 71.0 13.0) l1) (* (- (/ 72.0 77.0)) l1) (* (/ 79.0 38.0) l1) (* (- (/ 69.0 61.0)) l1) (* (/ 73.0 31.0) l1) (* (/ 39.0 80.0) l0) (* (/ 3.0 77.0) l0) (* (- (/ 96.0 80.0)) l0) (* (/ 90.0 99.0) l1) (* (/ 98.0 10.0) l1) (* (- (/ 7.0 50.0)) l1) (* (- (/ 78.0 52.0)) l1) (* (- (/ 36.0 10.0)) l0) (* (- (/ 41.0 93.0)) l0) (* (/ 33.0 78.0) l1) (* (- (/ 22.0 88.0)) l0) (* (- (/ 76.0 86.0)) l1) (* (- (/ 31.0 21.0)) l1) (* (/ 93.0 88.0) l0) (* (/ 92.0 74.0) l1)) | < epsilon
                                          (< (ite (>= (- (+ (* (/ 77.0 81.0) (f1 x)) (* (/ 62.0 65.0) (f0 x)) (* (- (/ 97.0 18.0)) (f0 x)) (* (/ 56.0 100.0) (f0 x)) (* (/ 9.0 50.0) (f0 x)) (* (/ 86.0 65.0) (f0 x)) (* (/ 61.0 24.0) (f1 x)) (* (- (/ 37.0 75.0)) (f1 x)) (* (/ 59.0 62.0) (f0 x)) (* (/ 63.0 95.0) (f1 x)) (* (- (/ 33.0 75.0)) (f0 x)) (* (- (/ 14.0 42.0)) (f0 x)) (* (/ 71.0 13.0) (f1 x)) (* (- (/ 72.0 77.0)) (f1 x)) (* (/ 79.0 38.0) (f1 x)) (* (- (/ 69.0 61.0)) (f1 x)) (* (/ 73.0 31.0) (f1 x)) (* (/ 39.0 80.0) (f0 x)) (* (/ 3.0 77.0) (f0 x)) (* (- (/ 96.0 80.0)) (f0 x)) (* (/ 90.0 99.0) (f1 x)) (* (/ 98.0 10.0) (f1 x)) (* (- (/ 7.0 50.0)) (f1 x)) (* (- (/ 78.0 52.0)) (f1 x)) (* (- (/ 36.0 10.0)) (f0 x)) (* (- (/ 41.0 93.0)) (f0 x)) (* (/ 33.0 78.0) (f1 x)) (* (- (/ 22.0 88.0)) (f0 x)) (* (- (/ 76.0 86.0)) (f1 x)) (* (- (/ 31.0 21.0)) (f1 x)) (* (/ 93.0 88.0) (f0 x)) (* (/ 92.0 74.0) (f1 x))) (+ (* (/ 77.0 81.0) l1) (* (/ 62.0 65.0) l0) (* (- (/ 97.0 18.0)) l0) (* (/ 56.0 100.0) l0) (* (/ 9.0 50.0) l0) (* (/ 86.0 65.0) l0) (* (/ 61.0 24.0) l1) (* (- (/ 37.0 75.0)) l1) (* (/ 59.0 62.0) l0) (* (/ 63.0 95.0) l1) (* (- (/ 33.0 75.0)) l0) (* (- (/ 14.0 42.0)) l0) (* (/ 71.0 13.0) l1) (* (- (/ 72.0 77.0)) l1) (* (/ 79.0 38.0) l1) (* (- (/ 69.0 61.0)) l1) (* (/ 73.0 31.0) l1) (* (/ 39.0 80.0) l0) (* (/ 3.0 77.0) l0) (* (- (/ 96.0 80.0)) l0) (* (/ 90.0 99.0) l1) (* (/ 98.0 10.0) l1) (* (- (/ 7.0 50.0)) l1) (* (- (/ 78.0 52.0)) l1) (* (- (/ 36.0 10.0)) l0) (* (- (/ 41.0 93.0)) l0) (* (/ 33.0 78.0) l1) (* (- (/ 22.0 88.0)) l0) (* (- (/ 76.0 86.0)) l1) (* (- (/ 31.0 21.0)) l1) (* (/ 93.0 88.0) l0) (* (/ 92.0 74.0) l1))) 0.0) (- (+ (* (/ 77.0 81.0) (f1 x)) (* (/ 62.0 65.0) (f0 x)) (* (- (/ 97.0 18.0)) (f0 x)) (* (/ 56.0 100.0) (f0 x)) (* (/ 9.0 50.0) (f0 x)) (* (/ 86.0 65.0) (f0 x)) (* (/ 61.0 24.0) (f1 x)) (* (- (/ 37.0 75.0)) (f1 x)) (* (/ 59.0 62.0) (f0 x)) (* (/ 63.0 95.0) (f1 x)) (* (- (/ 33.0 75.0)) (f0 x)) (* (- (/ 14.0 42.0)) (f0 x)) (* (/ 71.0 13.0) (f1 x)) (* (- (/ 72.0 77.0)) (f1 x)) (* (/ 79.0 38.0) (f1 x)) (* (- (/ 69.0 61.0)) (f1 x)) (* (/ 73.0 31.0) (f1 x)) (* (/ 39.0 80.0) (f0 x)) (* (/ 3.0 77.0) (f0 x)) (* (- (/ 96.0 80.0)) (f0 x)) (* (/ 90.0 99.0) (f1 x)) (* (/ 98.0 10.0) (f1 x)) (* (- (/ 7.0 50.0)) (f1 x)) (* (- (/ 78.0 52.0)) (f1 x)) (* (- (/ 36.0 10.0)) (f0 x)) (* (- (/ 41.0 93.0)) (f0 x)) (* (/ 33.0 78.0) (f1 x)) (* (- (/ 22.0 88.0)) (f0 x)) (* (- (/ 76.0 86.0)) (f1 x)) (* (- (/ 31.0 21.0)) (f1 x)) (* (/ 93.0 88.0) (f0 x)) (* (/ 92.0 74.0) (f1 x))) (+ (* (/ 77.0 81.0) l1) (* (/ 62.0 65.0) l0) (* (- (/ 97.0 18.0)) l0) (* (/ 56.0 100.0) l0) (* (/ 9.0 50.0) l0) (* (/ 86.0 65.0) l0) (* (/ 61.0 24.0) l1) (* (- (/ 37.0 75.0)) l1) (* (/ 59.0 62.0) l0) (* (/ 63.0 95.0) l1) (* (- (/ 33.0 75.0)) l0) (* (- (/ 14.0 42.0)) l0) (* (/ 71.0 13.0) l1) (* (- (/ 72.0 77.0)) l1) (* (/ 79.0 38.0) l1) (* (- (/ 69.0 61.0)) l1) (* (/ 73.0 31.0) l1) (* (/ 39.0 80.0) l0) (* (/ 3.0 77.0) l0) (* (- (/ 96.0 80.0)) l0) (* (/ 90.0 99.0) l1) (* (/ 98.0 10.0) l1) (* (- (/ 7.0 50.0)) l1) (* (- (/ 78.0 52.0)) l1) (* (- (/ 36.0 10.0)) l0) (* (- (/ 41.0 93.0)) l0) (* (/ 33.0 78.0) l1) (* (- (/ 22.0 88.0)) l0) (* (- (/ 76.0 86.0)) l1) (* (- (/ 31.0 21.0)) l1) (* (/ 93.0 88.0) l0) (* (/ 92.0 74.0) l1))) (- (- (+ (* (/ 77.0 81.0) (f1 x)) (* (/ 62.0 65.0) (f0 x)) (* (- (/ 97.0 18.0)) (f0 x)) (* (/ 56.0 100.0) (f0 x)) (* (/ 9.0 50.0) (f0 x)) (* (/ 86.0 65.0) (f0 x)) (* (/ 61.0 24.0) (f1 x)) (* (- (/ 37.0 75.0)) (f1 x)) (* (/ 59.0 62.0) (f0 x)) (* (/ 63.0 95.0) (f1 x)) (* (- (/ 33.0 75.0)) (f0 x)) (* (- (/ 14.0 42.0)) (f0 x)) (* (/ 71.0 13.0) (f1 x)) (* (- (/ 72.0 77.0)) (f1 x)) (* (/ 79.0 38.0) (f1 x)) (* (- (/ 69.0 61.0)) (f1 x)) (* (/ 73.0 31.0) (f1 x)) (* (/ 39.0 80.0) (f0 x)) (* (/ 3.0 77.0) (f0 x)) (* (- (/ 96.0 80.0)) (f0 x)) (* (/ 90.0 99.0) (f1 x)) (* (/ 98.0 10.0) (f1 x)) (* (- (/ 7.0 50.0)) (f1 x)) (* (- (/ 78.0 52.0)) (f1 x)) (* (- (/ 36.0 10.0)) (f0 x)) (* (- (/ 41.0 93.0)) (f0 x)) (* (/ 33.0 78.0) (f1 x)) (* (- (/ 22.0 88.0)) (f0 x)) (* (- (/ 76.0 86.0)) (f1 x)) (* (- (/ 31.0 21.0)) (f1 x)) (* (/ 93.0 88.0) (f0 x)) (* (/ 92.0 74.0) (f1 x))) (+ (* (/ 77.0 81.0) l1) (* (/ 62.0 65.0) l0) (* (- (/ 97.0 18.0)) l0) (* (/ 56.0 100.0) l0) (* (/ 9.0 50.0) l0) (* (/ 86.0 65.0) l0) (* (/ 61.0 24.0) l1) (* (- (/ 37.0 75.0)) l1) (* (/ 59.0 62.0) l0) (* (/ 63.0 95.0) l1) (* (- (/ 33.0 75.0)) l0) (* (- (/ 14.0 42.0)) l0) (* (/ 71.0 13.0) l1) (* (- (/ 72.0 77.0)) l1) (* (/ 79.0 38.0) l1) (* (- (/ 69.0 61.0)) l1) (* (/ 73.0 31.0) l1) (* (/ 39.0 80.0) l0) (* (/ 3.0 77.0) l0) (* (- (/ 96.0 80.0)) l0) (* (/ 90.0 99.0) l1) (* (/ 98.0 10.0) l1) (* (- (/ 7.0 50.0)) l1) (* (- (/ 78.0 52.0)) l1) (* (- (/ 36.0 10.0)) l0) (* (- (/ 41.0 93.0)) l0) (* (/ 33.0 78.0) l1) (* (- (/ 22.0 88.0)) l0) (* (- (/ 76.0 86.0)) l1) (* (- (/ 31.0 21.0)) l1) (* (/ 93.0 88.0) l0) (* (/ 92.0 74.0) l1))))) epsilon)
                 ))
               ))
             ))))

(check-sat)

